57 58 59 81 80 79 61 60 63 62 78 77 76 64 65 66 67 68 69 70 71 72 75 74 73 119 120 121 122 123 117 124 125 126 127 128 138 137 129 130 131 132 133 134 135 136 139 140 141 151 150 149 152 148 147 146 142 143 144 145 158 157 159 156 155 153 154 164 166 167 163 168 162 160 161 113 112 111 110 114 115 116 106 118 105 104 103 102 100 101 551 550 559 560 561 562 563 565 566 564 549 548 545 546 547 544 543 541 542 107 109 108 173 174 175 172 170 171 169 180 181 179 182 183 185 184 197 198 199 200 201 165 203 204 202 208 207 206 205 196 195 194 209 210 211 212 213 214 215 216 217 223 224 222 221 220 218 219 193 192 191 226 225 231 230 229 228 227 189 190 186 188 187 178 177 176 540 538 539 537 536 484 485 483 482 481 480 479 478 477 476 475 567 568 569 570 474 473 472 471 495 494 524 493 492 491 490 486 487 535 534 488 489 533 532 531 530 529 528 233 232 234 235 236 237 240 239 238 246 247 245 244 243 242 248 249 250 251 252 254 253 255 256 257 300 241 301 302 508 507 506 303 304 307 308 309 310 505 504 503 502 501 498 517 516 515 514 513 509 510 511 512 527 526 525 523 522 521 520 518 519 497 496 470 469 468 467 466 465 464 463 462 461 500 499 452 453 440 441 450 451 311 312 313 305 306 318 317 321 320 319 299 258 259 260 261 262 263 264 265 266 298 297 296 295 294 293 270 268 267 271 269 272 273 274 275 292 291 290 289 288 276 277 278 279 282 281 280 287 286 285 284 283 334 335 336 337 338 339 333 332 331 330 340 341 344 343 342 366 367 365 368 369 370 327 328 329 326 325 324 323 322 373 374 316 314 315 375 376 377 378 379 380 381 390 389 388 391 392 393 394 395 396 371 372 398 397 407 408 385 387 386 382 383 384 409 404 405 406 399 400 403 402 401 360 359 358 361 362 363 364 346 345 347 348 349 350 351 352 353 354 355 357 356 412 411 410 418 419 417 413 414 415 416 420 421 422 423 424 425 426 427 428 429 431 430 432 433 434 435 436 437 438 443 444 445 447 448 449 446 442 439 454 455 456 457 458 459 460 571 572 573 0 1 2 3 4 5 6 7 8 9 10 11 14 15 16 17 18 19 20 13 12 23 22 21 24 25 26 27 28 29 31 30 32 36 37 38 35 33 34 558 557 552 99 98 553 554 555 556 41 40 39 42 43 44 45 46 47 48 49 91 92 93 97 96 95 94 89 88 87 90 86 85 84 51 50 52 54 53 55 56 83 82